c generated by sgen
c unsatisfiable
c see http://www.cs.qub.ac.uk/~i.spence/sgen
p cnf 65 140
-2 -3 -4 0
-1 -3 -4 0
-1 -2 -4 0
-1 -2 -3 0
-6 -7 -8 0
-5 -7 -8 0
-5 -6 -8 0
-5 -6 -7 0
-10 -11 -12 0
-9 -11 -12 0
-9 -10 -12 0
-9 -10 -11 0
-14 -15 -16 0
-13 -15 -16 0
-13 -14 -16 0
-13 -14 -15 0
-18 -19 -20 0
-17 -19 -20 0
-17 -18 -20 0
-17 -18 -19 0
-22 -23 -24 0
-21 -23 -24 0
-21 -22 -24 0
-21 -22 -23 0
-26 -27 -28 0
-25 -27 -28 0
-25 -26 -28 0
-25 -26 -27 0
-30 -31 -32 0
-29 -31 -32 0
-29 -30 -32 0
-29 -30 -31 0
-34 -35 -36 0
-33 -35 -36 0
-33 -34 -36 0
-33 -34 -35 0
-38 -39 -40 0
-37 -39 -40 0
-37 -38 -40 0
-37 -38 -39 0
-42 -43 -44 0
-41 -43 -44 0
-41 -42 -44 0
-41 -42 -43 0
-46 -47 -48 0
-45 -47 -48 0
-45 -46 -48 0
-45 -46 -47 0
-50 -51 -52 0
-49 -51 -52 0
-49 -50 -52 0
-49 -50 -51 0
-54 -55 -56 0
-53 -55 -56 0
-53 -54 -56 0
-53 -54 -55 0
-58 -59 -60 0
-57 -59 -60 0
-57 -58 -60 0
-57 -58 -59 0
-61 -62 -63 0
-61 -62 -64 0
-61 -62 -65 0
-61 -63 -64 0
-61 -63 -65 0
-61 -64 -65 0
-62 -63 -64 0
-62 -63 -65 0
-62 -64 -65 0
-63 -64 -65 0
17 5 36 0
41 5 36 0
41 17 36 0
41 17 5 0
14 28 33 0
37 28 33 0
37 14 33 0
37 14 28 0
9 42 25 0
32 42 25 0
32 9 25 0
32 9 42 0
45 62 2 0
43 62 2 0
43 45 2 0
43 45 62 0
57 40 18 0
3 40 18 0
3 57 18 0
3 57 40 0
59 46 16 0
10 46 16 0
10 59 16 0
10 59 46 0
19 61 54 0
15 61 54 0
15 19 54 0
15 19 61 0
51 64 11 0
34 64 11 0
34 51 11 0
34 51 64 0
56 12 23 0
7 12 23 0
7 56 23 0
7 56 12 0
55 27 52 0
58 27 52 0
58 55 52 0
58 55 27 0
20 21 26 0
48 21 26 0
48 20 26 0
48 20 21 0
6 13 4 0
49 13 4 0
49 6 4 0
49 6 13 0
47 39 53 0
31 39 53 0
31 47 53 0
31 47 39 0
60 63 30 0
8 63 30 0
8 60 30 0
8 60 63 0
29 24 35 0
1 24 35 0
1 29 35 0
1 29 24 0
50 22 65 0
50 22 38 0
50 22 44 0
50 65 38 0
50 65 44 0
50 38 44 0
22 65 38 0
22 65 44 0
22 38 44 0
65 38 44 0
